# input-path

# output-path

# min-max-days-and-probs-of-incubation-period
1
1  3
0.33  0.33  0.33


# primary-lower-upper-bounds-and-probs-of-infectious-days-relative-to-symptom-onset-day
1
0  6
1.0  1.0  1.0  0.8  0.6  0.4  0.2


# number-of-c2p-transmission-probabilities
1


# number-of-p2p-transmission-probabilities
1


# number-of-pathogenicity-groups
0


# number-of-preseason-immunity-groups
0


# number-of-time-independent-covariates
1


# number-of-time-dependent-covariates
0


# covariates-affecting-susceptibility-for-c2p-transmission
0:   

# covariates-affecting-susceptibility-for-p2p-transmission
1: 1  

# covariates-affecting-infectiousness-for-p2p-transmission
0:   

# interactions-for-p2p-transmission
0:

# covariates-affecting-pathogenicity
0:

# covariates-affecting-preseason-immunity
0:

# equal-parameters
3:
1: 1
1: 2
1: 3

# fixed-parameters
0:

# perform-simulation
0

# proportion-with-ambiguity-about-preimmunity-and-escape-status
0

# optimization-choice
0

# converge-criteria
1:
b1  1.0e-4
p1  1.0e-4
or1  1.0e-4

# initial-estimates
1:1
b1  1.0e-1
p1  1.0e-1
or1  1.0e-4

# search-bounds
1:
b1  1.000000e-8  1.000000e-1
p1  1.000000e-8  1.000000e-1
or1  1.000000e-8  150

# perform-EM-algorithm
0

# min-number-of-possible-status-to-use-mcem
0

# use-community-specific-weighting
0

# number-of-base-mcmc-samples
0

# number-of-burnin-mcmc-samples
0

# number-of-burnin-mcmc-iterations
0

# number-of-samplings-for-mc-error
0

# use-bootstrap-for-mc-error
0

# do-not-calculate-average-variance-for-mc-error
0

# check-missingness
0

# check-mixing
0

# check-runtime
0

# relative-infectivity-of-asymptomatic-case-for-simulation
0

# relative-infectivity-of-asymptomatic-case-for-estimation
0

# members-share-common-c2p-contact-history-across-communities
0

# members-share-common-contact-history-within-communities
0

# automatically-generate-c2p-contact-file
0

# automatically-generate-p2p-contact-file
0

# use-c2p-offset
0

# use-p2p-offset
0

# adjust-for-selection-bias
1

# adjust-for-right-censoring
0

# prefix-index-cases
1

# epidemic-duration-for-calculating-CPI
10

# effective-lower-upper-bounds-of-infectious-days-relative-to-symptom-onset-day
0:

# multiplier-for-calculating-R0
1:
3.0 1.0

# serial-division-of-epidemic-for-calculating-time-varying-R0
0:

# goodness-of-fit
0

# perform-statistical-test
0

# do-not-estimate-variance
0

# do-not-output-estimates
0

# simplify-output
0

# simplify-output-SAR
0

# simplify-output-R0
0

# run-transtat-silently
0

# write-error-log
0
